NAME          
ROWS
 N  OBJ
 L  c1
 L  c2
COLUMNS
    MARKER    'MARKER'                 'INTORG'
    x[1]      c1        70
    x[1]      c2        247
    x[1]      OBJ       -777
    x[2]      c1        40
    x[2]      c2        92
    x[2]      OBJ       -606
    x[3]      c1        462
    x[3]      c2        871
    x[3]      OBJ       -275
    x[4]      c1        702
    x[4]      c2        734
    x[4]      OBJ       -716
    x[5]      c1        551
    x[5]      c2        663
    x[5]      OBJ       -596
    x[6]      c1        553
    x[6]      c2        646
    x[6]      OBJ       -630
    x[7]      c1        53
    x[7]      c2        283
    x[7]      OBJ       -223
    x[8]      c1        993
    x[8]      c2        236
    x[8]      OBJ       -212
    x[9]      c1        738
    x[9]      c2        666
    x[9]      OBJ       -798
    x[10]     c1        52
    x[10]     c2        379
    x[10]     OBJ       -263
    x[11]     c1        791
    x[11]     c2        743
    x[11]     OBJ       -792
    x[12]     c1        589
    x[12]     c2        618
    x[12]     OBJ       -119
    x[13]     c1        127
    x[13]     c2        65
    x[13]     OBJ       -656
    x[14]     c1        675
    x[14]     c2        353
    x[14]     OBJ       -61
    x[15]     c1        108
    x[15]     c2        744
    x[15]     OBJ       -758
    x[16]     c1        504
    x[16]     c2        95
    x[16]     OBJ       -24
    x[17]     c1        803
    x[17]     c2        538
    x[17]     OBJ       -99
    x[18]     c1        278
    x[18]     c2        753
    x[18]     OBJ       -179
    x[19]     c1        466
    x[19]     c2        280
    x[19]     OBJ       -915
    x[20]     c1        124
    x[20]     c2        900
    x[20]     OBJ       -944
    x[21]     c1        610
    x[21]     c2        719
    x[21]     OBJ       -103
    x[22]     c1        778
    x[22]     c2        406
    x[22]     OBJ       -802
    x[23]     c1        15
    x[23]     c2        288
    x[23]     OBJ       -137
    x[24]     c1        473
    x[24]     c2        196
    x[24]     OBJ       -857
    x[25]     c1        737
    x[25]     c2        41
    x[25]     OBJ       -91
    x[26]     c1        459
    x[26]     c2        29
    x[26]     OBJ       -662
    x[27]     c1        247
    x[27]     c2        496
    x[27]     OBJ       -976
    x[28]     c1        698
    x[28]     c2        705
    x[28]     OBJ       -761
    x[29]     c1        794
    x[29]     c2        445
    x[29]     OBJ       -314
    x[30]     c1        18
    x[30]     c2        10
    x[30]     OBJ       -862
RHS
    rhs       c1        6754
    rhs       c2        6620
RANGES
BOUNDS
 BV bounds    x[1]
 BV bounds    x[2]
 BV bounds    x[3]
 BV bounds    x[4]
 BV bounds    x[5]
 BV bounds    x[6]
 BV bounds    x[7]
 BV bounds    x[8]
 BV bounds    x[9]
 BV bounds    x[10]
 BV bounds    x[11]
 BV bounds    x[12]
 BV bounds    x[13]
 BV bounds    x[14]
 BV bounds    x[15]
 BV bounds    x[16]
 BV bounds    x[17]
 BV bounds    x[18]
 BV bounds    x[19]
 BV bounds    x[20]
 BV bounds    x[21]
 BV bounds    x[22]
 BV bounds    x[23]
 BV bounds    x[24]
 BV bounds    x[25]
 BV bounds    x[26]
 BV bounds    x[27]
 BV bounds    x[28]
 BV bounds    x[29]
 BV bounds    x[30]
ENDATA
